12 20
1 6 7 8 12
2 4 5 6 11 12
5 6 7 10 11 12
5 6 7 10 11
1 5 8 10 11
1 7 8 10 11 12
2 4 5 7 12
3 4 6 7 8 11
1 4 7 9 11
4 6 7 10 12
2 4 5 7 8
1 4 6 9 10 12
5 6 9 11 12
4 5 6 10 11 12
2 4 6 8 9 11
1 3 8 10 11 12
4 6 7 8 10 11
2 3 4 5 12
1 3 7 8 10
1 2 6 9 11 12
6 7 4 5 7 4 8 7 5 7 5 8 6 7 8 8 7 4 8 4
